SAT
6 22 68 95 10 89 -24 91 -43 1 53 -23 -9 -42 -44 -60 -70 -19 -37 -12 -93 71 40 75 73 51 -96 -100 -26 -52 82 -88 84 -35 94 41 -65 -29 5 58 16 85 -14 83 -79 56 -47 -17 -49 -69 -63 98 11 77 -90 -36 78 18 -81 2 -92 -80 15 21 48 66 64 -46 -61 8 28 57 55 27 -20 -62 -72 32 99 67 -3 54 -86 -13 -30 7 -50 59 -31 97 87 -34 38 33 -76 25 -74 -39 45 -4 0
